c --- [ banner ] -------------------------------------------------------------
c 
c CaDiCaL Radically Simplified CDCL SAT Solver
c Copyright (c) 2016-2021 A. Biere, M. Fleury, N. Froleyks
c 
c Version 1.5.2 a5f15211db36c3956764e18194dd5bd63bf3b5e6
c g++ (GCC) 9.3.0 -Wall -Wextra -O3 -DNDEBUG
c Fri Oct 21 01:27:37 EDT 2022 Linux gra-login3 3.10.0-1160.66.1.el7.x86_64 x86_64
c 
c --- [ limit ] --------------------------------------------------------------
c 
c setting conflict limit to 200000 conflicts (due to '200000')
c 
c --- [ parsing input ] ------------------------------------------------------
c 
c reading DIMACS file from '45.cubes18.adj'
c opening file to read '45.cubes18.adj'
c found 'p cnf 6160 1595483' header
c parsed 1595483 clauses in 16.52 seconds process time
c closing file '45.cubes18.adj'
c after reading 1457566830 bytes 1390.0 MB
c 
c --- [ options ] ------------------------------------------------------------
c 
c all options are set to their default value
c 
c --- [ solving ] ------------------------------------------------------------
c 
c time measured in process time since initialization
c 
c  seconds    reductions  redundant   irredundant
c          MB     restarts       trail       variables
c            level   conflicts       glue         remaining
c 
c * 16.53 1394  0 0   0    0    0  0% 0 1595422 2172 35%
c { 17.83 1454  0 0   0    0    0  0% 0 1595422 2172 35%
c i 18.88 1479 1199 0   0   28   24 45% 7 1595422 2169 35%
c i 18.90 1479 1191 0   0   38   31 45% 6 1595422 2168 35%
c i 22.68 1515 517 0  23  152  139 36% 20 1595422 2163 35%
c i 23.08 1518 473 0  29  173  159 35% 22 1595422 2162 35%
c i 23.11 1518 465 0  30  176  161 35% 23 1595422 2161 35%
c i 23.14 1518 454 0  31  181  165 34% 23 1595422 2160 35%
c i 23.51 1519 411 0  38  209  187 33% 25 1595422 2159 35%
c i 23.52 1519 409 0  38  210  187 33% 25 1595422 2158 35%
c i 23.72 1519 397 0  41  217  193 33% 24 1595422 2157 35%
c i 24.19 1521 352 0  48  256  222 33% 26 1595422 2156 35%
c i 24.49 1523 339 0  51  269  232 32% 26 1595422 2154 35%
c i 24.59 1523 335 0  53  274  236 32% 26 1595422 2153 35%
c i 24.59 1523 332 0  53  276  237 32% 27 1595422 2152 35%
c - 28.65 1503 308 1  56  300  258 32% 26 381737 2152 35%
c i 28.85 1503 287 1  56  324  277 32% 25 381737 2151 35%
c i 28.88 1503 278 1  56  336  287 32% 25 381737 2150 35%
c i 28.96 1503 261 1  56  360  296 32% 24 381737 2149 35%
c i 29.01 1503 249 1  56  380  309 31% 23 381737 2148 35%
c 
c  seconds     reductions  redundant   irredundant
c          MB      restarts       trail       variables
c             level   conflicts       glue         remaining
c 
c i 29.02 1503 247 1  56  383  310 31% 23 381737 2147 35%
c i 29.02 1503 247 1  56  384  310 31% 23 381737 2146 35%
c i 29.07 1503 237 1  56  400  320 31% 22 381737 2145 35%
c i 29.07 1503 237 1  56  401  320 31% 22 381737 2144 35%
c i 29.14 1503 230 1  56  413  329 31% 22 381737 2139 35%
c i 29.22 1503 221 1  56  430  341 31% 21 381737 2138 35%
c i 29.30 1503 216 1  56  439  345 31% 21 381737 2137 35%
c i 29.30 1503 216 1  56  440  345 31% 21 381737 2136 35%
c i 29.31 1503 215 1  56  441  345 31% 21 381737 2135 35%
c i 29.37 1503 194 1  56  492  382 31% 20 381737 2134 35%
c i 30.05 1503 147 1  70  692  548 30% 20 381737 2133 35%
c i 30.16 1503 147 1  72  698  552 30% 21 381737 2132 35%
c i 30.92 1504 137 1  85  775  605 30% 21 381737 2131 35%
c i 31.00 1504 135 1  85  787  614 30% 21 381737 2130 35%
c i 31.00 1504 134 1  85  794  620 30% 21 381737 2129 35%
c i 31.33 1504 129 1  93  835  657 30% 21 381737 2128 35%
c i 31.40 1504 127 1  94  853  673 30% 21 381737 2127 35%
c i 31.62 1504 118 1 103  946  756 30% 21 381737 2126 35%
c i 31.74 1504 115 1 104  974  776 30% 21 381737 2125 34%
c } 31.91 1504 113 1 104 1002  799 30% 21 381737 2125 34%
c 
c  seconds    reductions  redundant  irredundant
c          MB     restarts       trail      variables
c            level   conflicts       glue        remaining
c 
c [ 31.92 1504  0 1 104 1002  799  0% 0 381737 2125 34%
c O 31.92 1504  0 1 104 1003  799 15% 0 381737 2125 34%
c i 31.92 1504  0 1 104 1003  799 15% 0 381737 2107 34%
c i 31.92 1504  0 1 104 1004  799 15% 0 381737 2089 34%
c i 32.40 1505 33 1 104 1194  948 31% 27 381737 2088 34%
c i 32.40 1505 33 1 104 1195  948 31% 27 381737 2087 34%
c - 33.06 1531 34 2 104 1250  892 31% 27 349078 2087 34%
c i 33.89 1531 30 2 105 2341 1647 31% 25 349078 2086 34%
c i 33.89 1531 30 2 105 2347 1648 31% 25 349078 2085 34%
c - 34.32 1508 29 3 105 2638 1381 31% 25 349072 2085 34%
c i 34.60 1508 29 3 105 2784 1459 46% 25 349072 2084 34%
c ] 34.66 1508 29 3 105 3003 1586 46% 24 349072 2084 34%
c { 34.66 1508 113 3 105 3003 1586 88% 21 349072 2084 34%
c F 34.68 1508 113 3 105 3004 1586 88% 21 349072 2084 34%
c i 34.68 1508 113 3 105 3004 1586 88% 21 349072 2083 34%
c i 34.98 1508 103 3 105 3119 1684 84% 20 349072 2082 34%
c i 35.84 1508 76 3 126 3733 2171 70% 19 349072 2081 34%
c i 36.30 1508 75 3 141 3787 2219 69% 19 349072 2080 34%
c i 36.53 1508 75 3 148 3811 2241 68% 20 349072 2079 34%
c i 36.59 1508 75 3 151 3825 2253 68% 20 349072 2078 34%
c 
c  seconds    reductions  redundant   irredundant
c          MB     restarts       trail       variables
c            level   conflicts       glue         remaining
c 
c i 36.61 1508 75 3 152 3830 2257 68% 20 349072 2077 34%
c i 36.89 1508 75 3 166 3888 2311 67% 20 349072 2076 34%
c i 37.04 1508 74 3 177 3941 2359 67% 20 349072 2075 34%
c i 37.64 1508 64 3 200 4440 2704 62% 20 349072 2074 34%
c i 37.67 1508 63 3 200 4474 2735 61% 20 349072 2073 34%
c i 37.67 1508 63 3 200 4475 2735 61% 20 349072 2072 34%
c - 37.98 1503 63 4 200 4489 1969 61% 20 349033 2072 34%
c d 38.98 1503 55 4 200 5001 2243 58% 18 349013 2062 33%
c 2 39.05 1503 55 4 200 5001 3145 58% 18 349013 2062 33%
c p 41.14 1503 55 4 200 5001 6182 58% 18 349013 2021 33%
c d 41.63 1503 55 4 200 5001 6033 58% 18 348892 2018 33%
c # 42.71 1503 46 4 207 6010 6774 54% 17 348892 2018 33%
c - 43.80 1380 41 5 219 6805 2939 52% 16 348892 2018 33%
c } 43.96 1380 40 5 223 7005 3089 52% 16 348892 2018 33%
c [ 43.96 1380 29 5 223 7005 3089 46% 24 348892 2018 33%
c - 45.18 1381 26 6 225 9582 3080 44% 23 348892 2018 33%
c I 45.51 1381 26 6 225 10012 3360 44% 23 348892 2018 33%
c - 49.05 1381 26 7 227 12823 3894 44% 22 348892 2018 33%
c 2 50.34 1381 25 7 228 15003 6404 45% 21 348892 2018 33%
c p 56.49 1381 25 7 228 15003 10826 45% 21 348892 2013 33%
c 
c  seconds    reductions    redundant   irredundant
c          MB     restarts         trail       variables
c            level    conflicts        glue         remaining
c 
c ] 56.69 1381 25 7 228 15005 10828 45% 21 348892 2013 33%
c { 56.69 1381 40 7 228 15005 10828 52% 16 348892 2013 33%
c B 56.82 1381 40 7 228 15013 10834 52% 16 348892 2013 33%
c - 62.40 1381 37 8 346 16526 5014 50% 17 348877 2013 33%
c s 68.43 1381 33 8 515 19042 6606 48% 16 346515 2013 33%
c v 75.80 1381 33 8 515 19042 6606 48% 16 346497 2013 33%
c t 75.95 1381 33 8 515 19042 6568 48% 16 346487 2013 33%
c e 76.65 1382 33 8 515 19042 6115 48% 16 344422 753 12%
c s 76.77 1382 33 8 515 19042 6112 48% 16 342699 753 12%
c - 79.85 1383 31 9 556 20693 5437 66% 16 342699 753 12%
c W 80.96 1383 31 9 573 21014 5683 66% 16 342699 753 12%
c - 91.62 1383 29 10 842 25297 6168 64% 16 342699 753 12%
c F 96.94 1383 28 10 979 28015 8041 64% 16 342699 753 12%
c 3 100.22 1383 27 10 1038 30006 9796 64% 16 342699 753 12%
c 2 100.27 1383 27 10 1038 30006 9825 64% 16 342698 753 12%
c p 104.41 1383 27 10 1038 30006 11628 64% 16 342698 751 12%
c - 105.30 1383 26 11 1038 30363 7017 64% 16 342692 751 12%
c } 105.72 1383 26 11 1062 31005 7430 64% 16 342692 751 12%
c [ 105.72 1383 25 11 1062 31005 7430 124% 21 342692 751 12%
c - 107.82 1383 25 12 1065 35888 7312 102% 21 342692 751 12%
c 
c  seconds     reductions     redundant    irredundant
c           MB      restarts         trail        variables
c             level      conflicts        glue        remaining
c 
c B 108.05 1383 25 12 1065 36016 7391 101% 21 342692 751 12%
c - 115.25 1384 27 13 1069 41877 7303 90% 23 342692 751 12%
c W 119.49 1384 27 13 1069 45018 9336 86% 23 342692 751 12%
c - 121.78 1384 27 14 1070 48323 7983 83% 23 342692 751 12%
c p 124.95 1384 27 14 1070 50007 11428 82% 23 342692 751 12%
c s 128.76 1384 27 14 1070 54366 13997 79% 23 341166 751 12%
c v 135.33 1384 27 14 1070 54366 13997 79% 23 341152 751 12%
c t 135.62 1384 27 14 1070 54366 13986 79% 23 341152 751 12%
c e 136.27 1384 27 14 1070 54366 13985 79% 23 341151 750 12%
c s 136.44 1384 27 14 1070 54366 13984 79% 23 338876 750 12%
c O 138.15 1384 27 14 1071 55022 14319 79% 23 338876 750 12%
c - 138.48 1384 27 15 1071 55230 8723 79% 23 338876 750 12%
c - 141.13 1384 27 16 1076 62574 8792 76% 23 338876 750 12%
c ] 141.36 1384 27 16 1077 63007 9077 76% 23 338876 750 12%
c { 141.36 1384 26 16 1077 63007 9077 64% 16 338876 750 12%
c B 145.02 1384 25 16 1203 66026 10931 64% 16 338876 750 12%
c - 151.93 1383 24 17 1341 70377 9845 64% 16 338876 750 12%
c p 158.75 1384 23 17 1509 75009 15392 65% 15 338876 750 12%
c W 161.68 1384 22 17 1587 78029 17147 65% 15 338876 750 12%
c - 161.99 1384 22 18 1590 78639 10993 65% 15 338876 750 12%
c 
c  seconds     reductions      redundant   irredundant
c           MB      restarts          trail       variables
c             level      conflicts        glue        remaining
c 
c - 177.02 1384 21 19 1931 87360 11708 65% 15 338876 750 12%
c # 179.29 1384 21 19 1958 91030 13625 65% 14 338876 750 12%
c - 188.49 1384 20 20 2202 96541 12212 65% 14 338876 750 12%
c } 195.13 1384 20 20 2375 103774 16437 65% 14 338876 750 12%
c 1 195.13 1384 20 20 2375 103774 16437 65% 14 338876 750 12%
c 
c --- [ writing output ] -----------------------------------------------------
c 
c writing simplified CNF to DIMACS file 'simp/45.cubes18.adj.simp1'
c * 195.13 1384 20 20 2375 103774 16437 65% 14 338876 750 12%
c opening file to write 'simp/45.cubes18.adj.simp1'
c writing 'p cnf 6160 338876' header
c closing file 'simp/45.cubes18.adj.simp1'
c after writing 132369383 bytes 126.2 MB
c wrote 338876 clauses in 0.82 seconds process time
c 
c --- [ writing extension ] --------------------------------------------------
c 
c writing extension stack to 'simp/45.cubes18.adj.ext1'
c opening file to write 'simp/45.cubes18.adj.ext1'
c closing file 'simp/45.cubes18.adj.ext1'
c after writing 84755 bytes 0.1 MB
c wrote 3850 witnesses in 0.00 seconds process time
c 
c --- [ result ] -------------------------------------------------------------
c 
s SATISFIABLE
c 
c --- [ run-time profiling ] -------------------------------------------------
c 
c process time taken by individual solving procedures
c (percentage relative to process time for solving)
c 
c       143.55   80.37% search
c       107.35   60.11% unstable
c        35.06   19.63% simplify
c        33.04   18.50% stable
c        16.52    9.25% parse
c        16.08    9.00% probe
c        14.30    8.01% vivify
c         2.65    1.48% elim
c         1.85    1.03% walk
c         1.31    0.73% lucky
c         0.57    0.32% subsume
c         0.20    0.11% ternary
c   =================================
c       178.61   91.15% solve
c 
c last line shows process time for solving
c (percentage relative to total process time)
c 
c --- [ statistics ] ---------------------------------------------------------
c 
c chronological:             19670        18.95 %  of conflicts
c conflicts:                103774       581.02    per second
c decisions:                194666      1089.91    per second
c eliminated:                 1261        20.47 %  of all variables
c fixed:                       992        16.10 %  of all variables
c learned:                  101481        97.79 %  per conflict
c learned_lits:           13204365       100.00 %  learned literals
c minimized:                     0         0.00 %  learned literals
c shrunken:                8783835        66.52 %  learned literals
c minishrunken:             745254         5.64 %  learned literals
c propagations:            7619643         0.04 M  per second
c reduced:                   49778        47.97 %  per conflict
c rephased:                     13      7982.62    interval
c restarts:                   2375        43.69    interval
c stabilizing:                   3        40.48 %  of conflicts
c substituted:                  13         0.21 %  of all variables
c subsumed:                  42952         1.22 %  of all clauses
c strengthened:              12104         0.34 %  of all clauses
c ternary:                    3237         0.66 %  of resolved
c vivified:                     54         0.00 %  of all clauses
c walked:                        3     34591.33    interval
c weakened:                   2858         3.12    average size
c 
c seconds are measured in process time for solving
c 
c --- [ resources ] ----------------------------------------------------------
c 
c total process time since initialization:       195.95    seconds
c total real time since initialization:          196.73    seconds
c maximum resident set size of process:         1660.22    MB
c 
c --- [ shutting down ] ------------------------------------------------------
c 
c exit 10
WARNING! DIMACS header mismatch: wrong number of variables.
============================[ Problem Statistics ]=============================
|                                                                             |
|  Number of variables:          3756                                         |
|  Number of clauses:          338876                                         |
|  Parse time:                   1.88 s                                       |
|  Simplification time:          0.05 s                                       |
|                                                                             |
============================[ Search Statistics ]====================================================
| Conflicts |          ORIGINAL         |          LEARNT          | Num Sols |      SUBGRAPHS      |
|           |    Vars  Clauses Literals |    Limit  Clauses Lit/Cl |          | Canonical Noncanon. |
=====================================================================================================
|       101 |    3653   338877 28574702 |     2000      101     97 |        0 |        14         1 |
|       251 |    3653   338877 28574702 |     2000      251     82 |        0 |        23         1 |
|       477 |    3653   338878 28574721 |     2000      477     86 |        0 |        26         2 |
|       814 |    3653   338878 28574721 |     2000      814     85 |        0 |        29         2 |
|      1320 |    3653   338878 28574721 |     2000     1320     80 |        0 |        36         2 |
|      2246 |    3653   339045 28576542 |     3601     1247     41 |        0 |        58       169 |
|      3797 |    3653   339457 28582053 |     3601     2798     46 |        0 |       145       581 |
|      5533 |    3653   339485 28582408 |     5003     2736     31 |        0 |       177       609 |
|      8220 |    3653   339610 28585049 |     6304     2924     24 |        0 |       214       734 |
|     12113 |    3653   339659 28585862 |     7553     3666     20 |        0 |       253       783 |
|     18167 |    3653   339947 28589365 |     8780     5947     36 |        0 |       371      1071 |
|     27199 |    3653   340330 28594837 |    11200     5599     19 |        0 |       504      1454 |
|     40849 |    3653   341006 28604701 |    13604     7453     23 |        0 |       664      2130 |
|     60711 |    3653   341407 28611120 |    16010    13121     36 |        0 |       799      2531 |
|     90285 |    3653   341789 28617085 |    19622    16907     41 |        0 |       930      2913 |
|    134641 |    3653   342356 28626578 |    24411    18452     34 |        0 |      1148      3480 |
|    201508 |    3653   343539 28645925 |    30412    18320     24 |        0 |      1593      4663 |
|    301084 |    3653   344589 28663505 |    36416    35900     43 |        0 |      1918      5713 |
|    449212 |    3653   344928 28674290 |    44826    44038     44 |        0 |      2046      6052 |
|    672369 |    3653   346402 28701720 |    55612    43981     36 |        0 |      2383      7526 |
|   1006290 |    3653   347798 28731511 |    68832    39122     22 |        0 |      2849      8922 |
|   1509947 |    3653   352667 28829028 |    84412    48759     23 |        0 |      4250     13791 |
|   2274116 |    3653   368654 29158597 |   103621    65737     28 |        0 |      9913     29778 |
|   3406429 |    3645   375806 29287444 |   124446   109275     43 |        0 |     12442     39817 |
=====================================================================================================
Number of solutions   : 0
Canonical subgraphs   : 16973          (3 /sec)
          order  3    : 1              (200000 /sec)
          order  4    : 1              (1000000 /sec)
          order  5    : 1              (200000 /sec)
          order  6    : 1              (50000 /sec)
          order  7    : 1              (7937 /sec)
          order  8    : 1              (928 /sec)
          order  9    : 2              (135 /sec)
          order 10    : 6              (30 /sec)
          order 11    : 16             (6 /sec)
          order 12    : 105            (2 /sec)
          order 13    : 948            (2 /sec)
          order 14    : 3091           (4 /sec)
          order 15    : 3696           (4 /sec)
          order 16    : 3718           (4 /sec)
          order 17    : 5219           (3 /sec)
          order 18    : 159            (3 /sec)
          order 19    : 7              (3 /sec)
          order 20    : 0              (-nan /sec)
          order 21    : 0              (-nan /sec)
          order 22    : 0              (-nan /sec)
Noncanonical subgraphs: 51105          (70 /sec)
          order  3    : 0              (-nan /sec)
          order  4    : 0              (-nan /sec)
          order  5    : 0              (-nan /sec)
          order  6    : 0              (-nan /sec)
          order  7    : 0              (-nan /sec)
          order  8    : 0              (-nan /sec)
          order  9    : 0              (-nan /sec)
          order 10    : 0              (-nan /sec)
          order 11    : 0              (-nan /sec)
          order 12    : 0              (-nan /sec)
          order 13    : 2030           (17457 /sec)
          order 14    : 14362          (3008 /sec)
          order 15    : 7819           (1545 /sec)
          order 16    : 11730          (254 /sec)
          order 17    : 2310           (162 /sec)
          order 18    : 12854          (19 /sec)
          order 19    : 0              (-nan /sec)
          order 20    : 0              (-nan /sec)
          order 21    : 0              (-nan /sec)
Canonicity checking   : 5141.26 s
Noncanonicity checking: 734.251 s
Total canonicity time : 5875.51 s
database reductions   : 107
restarts              : 6394
conflicts             : 3670759        (489 /sec)
decisions             : 4918455        (0.00 % random) (656 /sec)
propagations          : 186120504      (24807 /sec)
conflict literals     : 266283007      (54.44 % deleted)
actual reward         : 0.241675
Memory used           : 394.00 MB
CPU time              : 7502.8 s

UNSATISFIABLE
